#iterations fitness
0 31391.4
1 31391.4
2 31391.4
3 31391.4
4 31389.2
5 31389.2
6 31389.2
7 31354.8
8 31340.6
9 31340.6
10 31340.6
11 31340.6
12 31340.6
13 31333.4
14 31333.4
15 31333.4
16 31324.4
17 31307.0
18 31187.0
19 31187.0
20 31187.0
21 31171.0
22 31171.0
23 31164.4
24 31154.8
25 31148.0
26 31148.0
27 31148.0
28 31068.4
29 31068.4
30 31068.4
31 31068.4
32 31068.4
33 31068.4
34 31053.6
35 31015.0
36 30999.2
37 30999.2
38 30999.2
39 30999.2
40 30999.2
41 30999.2
42 30999.2
43 30979.2
44 30935.0
45 30935.0
46 30935.0
47 30932.6
48 30932.6
49 30836.4
50 30836.4
51 30834.6
52 30834.6
53 30834.6
54 30834.6
55 30834.6
56 30834.6
57 30809.6
58 30760.8
59 30760.8
60 30760.8
61 30760.8
62 30760.8
63 30760.8
64 30760.8
65 30755.6
66 30734.0
67 30713.8
68 30713.8
69 30694.8
70 30694.8
71 30694.8
72 30694.8
73 30694.8
74 30694.8
75 30694.8
76 30681.2
77 30681.2
78 30639.0
79 30631.4
80 30631.4
81 30621.0
82 30611.8
83 30611.8
84 30592.0
85 30592.0
86 30592.0
87 30592.0
88 30592.0
89 30592.0
90 30554.2
91 30511.8
92 30476.4
93 30476.4
94 30476.4
95 30436.4
96 30436.4
97 30436.4
98 30395.8
99 30395.8
100 30395.8
101 30371.0
102 30371.0
103 30371.0
104 30371.0
105 30371.0
106 30371.0
107 30352.0
108 30352.0
109 30352.0
110 30329.2
111 30329.2
112 30248.0
113 30248.0
114 30248.0
115 30248.0
116 30248.0
117 30248.0
118 30248.0
119 30244.4
120 30244.4
121 30231.2
122 30220.8
123 30217.0
124 30199.8
125 30199.8
126 30197.8
127 30197.8
128 30197.8
129 30197.8
130 30197.8
131 30194.4
132 30194.4
133 30194.4
134 30194.4
135 30153.4
136 30097.8
137 30097.8
138 30042.4
139 30031.6
140 30031.6
141 30031.6
142 30031.6
143 30007.8
144 30007.8
145 30007.8
146 30007.8
147 29982.4
148 29969.0
149 29958.0
150 29948.6
151 29948.6
152 29948.6
153 29942.8
154 29938.2
155 29910.8
156 29892.2
157 29849.0
158 29781.0
159 29776.8
160 29776.8
161 29775.8
162 29775.8
163 29765.0
164 29760.6
165 29760.6
166 29739.6
167 29739.6
168 29723.6
169 29723.6
170 29706.8
171 29685.8
172 29685.8
173 29677.8
174 29677.8
175 29677.8
176 29669.4
177 29652.0
178 29650.6
179 29650.6
180 29650.6
181 29650.6
182 29557.6
183 29557.6
184 29544.6
185 29544.6
186 29544.6
187 29531.4
188 29531.4
189 29531.4
190 29531.4
191 29531.4
192 29507.0
193 29507.0
194 29507.0
195 29507.0
196 29507.0
197 29497.2
198 29497.2
199 29497.2
200 29482.8
201 29482.8
202 29476.4
203 29476.4
204 29474.2
205 29452.8
206 29447.2
207 29445.6
208 29418.4
209 29396.4
210 29371.0
211 29371.0
212 29371.0
213 29371.0
214 29318.8
215 29313.8
216 29313.8
217 29313.8
218 29313.8
219 29299.4
220 29299.4
221 29299.4
222 29289.0
223 29289.0
224 29289.0
225 29278.0
226 29278.0
227 29271.8
228 29269.4
229 29244.0
230 29233.0
231 29233.0
232 29233.0
233 29233.0
234 29226.2
235 29226.2
236 29219.4
237 29207.0
238 29207.0
239 29169.2
240 29169.2
241 29122.4
242 29122.4
243 29105.6
244 29086.4
245 29086.4
246 29086.4
247 29071.0
248 29053.4
249 29053.4
250 29053.4
251 29053.4
252 29053.4
253 29053.4
254 29053.4
255 29024.0
256 29016.8
257 29016.8
258 29003.4
259 29003.4
260 29003.4
261 28990.0
262 28990.0
263 28949.2
264 28949.2
265 28949.2
266 28949.2
267 28949.2
268 28925.0
269 28925.0
270 28873.4
271 28873.4
272 28829.8
273 28818.0
274 28780.0
275 28758.4
276 28757.6
277 28724.4
278 28700.0
279 28700.0
280 28700.0
281 28682.2
282 28682.2
283 28682.2
284 28682.2
285 28682.2
286 28677.4
287 28677.4
288 28677.4
289 28677.4
290 28630.4
291 28630.4
292 28630.4
293 28630.4
294 28599.2
295 28599.2
296 28599.2
297 28586.2
298 28586.2
299 28586.2
300 28579.8
301 28579.8
302 28579.8
303 28579.4
304 28575.4
305 28572.2
306 28532.2
307 28525.8
308 28525.8
309 28525.8
310 28507.8
311 28506.6
312 28506.6
313 28429.4
314 28420.2
315 28420.2
316 28413.0
317 28413.0
318 28413.0
319 28380.0
320 28380.0
321 28380.0
322 28380.0
323 28375.0
324 28375.0
325 28375.0
326 28356.6
327 28356.6
328 28356.6
329 28356.6
330 28352.2
331 28352.2
332 28352.2
333 28352.2
334 28352.2
335 28334.6
336 28333.8
337 28322.8
338 28289.0
339 28289.0
340 28285.2
341 28285.2
342 28285.2
343 28265.6
344 28264.6
345 28264.6
346 28264.6
347 28241.0
348 28240.8
349 28219.4
350 28219.4
351 28214.2
352 28205.8
353 28205.8
354 28205.8
355 28205.8
356 28205.8
357 28204.0
358 28201.6
359 28201.6
360 28201.6
361 28175.2
362 28163.4
363 28136.2
364 28133.0
365 28128.2
366 28098.0
367 28092.8
368 28087.6
369 28052.0
370 28052.0
371 28052.0
372 28052.0
373 28052.0
374 28052.0
375 28010.6
376 28009.6
377 28009.6
378 28000.4
379 28000.4
380 27997.0
381 27996.8
382 27996.8
383 27996.8
384 27996.8
385 27996.8
386 27996.8
387 27996.8
388 27962.2
389 27962.2
390 27937.4
391 27893.4
392 27888.8
393 27888.8
394 27885.8
395 27855.6
396 27839.6
397 27839.6
398 27839.6
399 27839.6
400 27839.6
401 27814.2
402 27811.6
403 27811.6
404 27719.0
405 27719.0
406 27719.0
407 27719.0
408 27719.0
409 27674.4
410 27674.4
411 27674.4
412 27674.4
413 27670.6
414 27633.6
415 27633.6
416 27619.0
417 27619.0
418 27619.0
419 27619.0
420 27619.0
421 27619.0
422 27619.0
423 27617.4
424 27617.4
425 27617.4
426 27617.4
427 27617.4
428 27596.2
429 27596.2
430 27585.2
431 27519.2
432 27518.8
433 27508.4
434 27508.4
435 27508.4
436 27508.4
437 27508.4
438 27508.4
439 27503.0
440 27503.0
441 27503.0
442 27503.0
443 27489.0
444 27489.0
445 27489.0
446 27489.0
447 27489.0
448 27489.0
449 27489.0
450 27487.8
451 27487.8
452 27487.8
453 27485.4
454 27485.4
455 27485.4
456 27485.4
457 27479.0
458 27469.8
459 27469.8
460 27469.8
461 27431.8
462 27431.8
463 27404.8
464 27404.8
465 27366.4
466 27366.4
467 27366.4
468 27355.8
469 27355.8
470 27329.0
471 27294.0
472 27285.2
473 27285.2
474 27256.0
475 27256.0
476 27256.0
477 27256.0
478 27241.0
479 27241.0
480 27241.0
481 27241.0
482 27241.0
483 27225.4
484 27225.4
485 27225.4
486 27214.6
487 27214.6
488 27201.6
489 27201.6
490 27201.6
491 27201.6
492 27201.6
493 27201.6
494 27201.6
495 27192.6
496 27192.6
497 27192.6
498 27192.6
499 27192.6
500 27192.6
501 27192.6
502 27192.6
503 27192.6
504 27192.6
505 27170.8
506 27145.2
507 27139.0
508 27139.0
509 27139.0
510 27139.0
511 27139.0
512 27139.0
513 27126.6
514 27111.6
515 27106.0
516 27095.6
517 27091.2
518 27091.2
519 27085.8
520 27085.8
521 27085.8
522 27085.8
523 27085.8
524 27085.8
525 27064.4
526 27064.4
527 27064.4
528 27062.2
529 27062.2
530 27062.2
531 27055.0
532 27052.2
533 27052.2
534 27052.2
535 27050.6
536 27050.6
537 27050.6
538 27049.4
539 27014.2
540 26999.6
541 26999.6
542 26999.6
543 26999.6
544 26999.6
545 26999.6
546 26999.6
547 26999.6
548 26951.8
549 26936.0
550 26890.8
551 26890.8
552 26879.8
553 26852.8
554 26852.8
555 26852.8
556 26832.2
557 26832.2
558 26830.4
559 26830.4
560 26805.2
561 26805.2
562 26805.2
563 26776.0
564 26760.4
565 26760.4
566 26760.4
567 26741.0
568 26741.0
569 26735.6
570 26735.6
571 26718.2
572 26710.4
573 26710.4
574 26710.4
575 26708.6
576 26708.6
577 26684.0
578 26684.0
579 26681.6
580 26681.6
581 26674.8
582 26674.8
583 26674.8
584 26662.6
585 26662.6
586 26637.6
587 26636.2
588 26636.2
589 26636.2
590 26636.2
591 26624.4
592 26624.4
593 26624.4
594 26624.4
595 26616.6
596 26604.2
597 26572.0
598 26513.0
599 26513.0
600 26513.0
601 26513.0
602 26513.0
603 26511.8
604 26511.8
605 26493.6
606 26493.6
607 26493.6
608 26493.6
609 26478.0
610 26478.0
611 26478.0
612 26451.0
613 26451.0
614 26407.4
615 26407.0
616 26405.8
617 26405.8
618 26405.8
619 26405.8
620 26405.8
621 26357.0
622 26357.0
623 26350.0
624 26320.6
625 26301.6
626 26301.6
627 26301.6
628 26301.6
629 26286.0
630 26286.0
631 26286.0
632 26281.8
633 26248.6
634 26218.0
635 26201.8
636 26201.8
637 26197.0
638 26197.0
639 26197.0
640 26197.0
641 26197.0
642 26196.0
643 26195.8
644 26195.8
645 26195.8
646 26191.4
647 26191.4
648 26191.4
649 26175.6
650 26175.6
651 26156.2
652 26137.6
653 26137.6
654 26123.6
655 26123.6
656 26119.8
657 26119.8
658 26119.8
659 26119.8
660 26114.6
661 26092.0
662 26092.0
663 26092.0
664 26009.6
665 26009.6
666 26009.0
667 25971.6
668 25971.6
669 25971.6
670 25971.6
671 25971.6
672 25925.4
673 25925.4
674 25925.4
675 25925.4
676 25925.4
677 25925.4
678 25925.0
679 25925.0
680 25925.0
681 25925.0
682 25911.6
683 25900.0
684 25900.0
685 25900.0
686 25900.0
687 25900.0
688 25876.6
689 25876.6
690 25876.6
691 25876.6
692 25876.6
693 25868.6
694 25868.6
695 25852.4
696 25805.0
697 25805.0
698 25781.8
699 25781.8
700 25781.8
701 25781.8
702 25781.8
703 25781.8
704 25776.6
705 25776.6
706 25776.6
707 25776.6
708 25776.6
709 25776.6
710 25776.6
711 25735.4
712 25735.4
713 25735.4
714 25732.8
715 25732.8
716 25681.6
717 25681.6
718 25681.6
719 25681.6
720 25681.6
721 25674.0
722 25674.0
723 25674.0
724 25674.0
725 25674.0
726 25674.0
727 25674.0
728 25674.0
729 25674.0
730 25674.0
731 25674.0
732 25674.0
733 25674.0
734 25674.0
735 25674.0
736 25674.0
737 25660.6
738 25660.6
739 25660.6
740 25660.6
741 25660.6
742 25642.6
743 25642.6
744 25642.6
745 25625.2
746 25563.8
747 25563.8
748 25563.8
749 25560.2
750 25560.2
751 25560.2
752 25560.2
753 25560.2
754 25560.2
755 25560.2
756 25560.2
757 25547.0
758 25547.0
759 25547.0
760 25547.0
761 25547.0
762 25547.0
763 25531.6
764 25531.6
765 25531.6
766 25531.6
767 25531.6
768 25531.6
769 25531.6
770 25499.6
771 25496.0
772 25496.0
773 25496.0
774 25494.0
775 25463.6
776 25463.6
777 25462.0
778 25462.0
779 25461.2
780 25461.2
781 25461.2
782 25461.2
783 25437.8
784 25437.8
785 25398.4
786 25392.8
787 25392.8
788 25392.8
789 25392.8
790 25392.8
791 25362.0
792 25362.0
793 25362.0
794 25343.2
795 25343.2
796 25343.2
797 25325.6
798 25325.6
799 25325.6
800 25325.6
801 25325.6
802 25325.6
803 25325.6
804 25325.6
805 25325.6
806 25325.6
807 25325.6
808 25325.6
809 25325.6
810 25325.6
811 25325.6
812 25325.6
813 25325.6
814 25325.6
815 25306.2
816 25306.2
817 25306.2
818 25306.2
819 25306.2
820 25306.2
821 25291.8
822 25291.8
823 25290.6
824 25290.6
825 25290.6
826 25290.6
827 25290.6
828 25290.6
829 25290.6
830 25290.6
831 25290.6
832 25290.6
833 25290.6
834 25254.6
835 25251.8
836 25251.8
837 25251.8
838 25251.8
839 25251.8
840 25251.8
841 25233.8
842 25233.8
843 25233.8
844 25233.8
845 25231.6
846 25231.6
847 25231.6
848 25231.6
849 25231.6
850 25231.6
851 25231.6
852 25231.6
853 25231.6
854 25231.6
855 25231.6
856 25216.0
857 25216.0
858 25211.8
859 25211.8
860 25211.8
861 25211.8
862 25211.8
863 25211.8
864 25211.8
865 25195.6
866 25194.6
867 25194.6
868 25194.6
869 25194.6
870 25194.6
871 25138.0
872 25136.4
873 25136.4
874 25129.0
875 25129.0
876 25129.0
877 25129.0
878 25129.0
879 25129.0
880 25129.0
881 25129.0
882 25129.0
883 25106.8
884 25082.8
885 25066.6
886 25066.6
887 25066.6
888 25066.6
889 25066.6
890 25066.6
891 25066.6
892 25066.6
893 25066.6
894 25066.6
895 25066.6
896 25065.8
897 25065.8
898 25065.8
899 25065.8
900 25065.8
901 25065.8
902 25048.6
903 25048.6
904 25048.6
905 25045.2
906 25045.2
907 25045.2
908 25045.2
909 25045.2
910 24998.0
911 24998.0
912 24979.6
913 24979.6
914 24978.0
915 24978.0
916 24978.0
917 24967.0
918 24967.0
919 24956.0
920 24956.0
921 24956.0
922 24934.8
923 24934.8
924 24934.8
925 24934.8
926 24920.6
927 24917.4
928 24917.4
929 24917.4
930 24914.6
931 24914.6
932 24914.6
933 24914.6
934 24914.6
935 24914.6
936 24914.6
937 24914.6
938 24908.2
939 24895.6
940 24895.6
941 24888.0
942 24888.0
943 24888.0
944 24861.2
945 24861.2
946 24861.2
947 24826.6
948 24824.2
949 24824.2
950 24824.2
951 24815.6
952 24815.6
953 24815.6
954 24815.6
955 24815.6
956 24815.6
957 24815.6
958 24788.0
959 24788.0
960 24788.0
961 24788.0
962 24786.6
963 24786.6
964 24770.8
965 24770.8
966 24770.8
967 24770.8
968 24770.8
969 24748.2
970 24706.8
971 24706.8
972 24706.8
973 24706.8
974 24682.0
975 24682.0
976 24658.2
977 24658.2
978 24644.2
979 24644.2
980 24644.2
981 24644.2
982 24644.2
983 24619.6
984 24619.6
985 24609.0
986 24609.0
987 24609.0
988 24609.0
989 24608.2
990 24539.0
991 24528.8
992 24528.8
993 24528.8
994 24519.0
995 24519.0
996 24519.0
997 24519.0
998 24519.0
999 24519.0
